Running MiniSat on FULL_RUN_MINISAT\be6411f4784a3c879886dda807cdc607-j3037_10_mdd_b.cnf... 
============================[ Problem Statistics ]=============================
|                                                                             |
|  Number of variables:         14945                                         |
|  Number of clauses:           66518                                         |
|  Parse time:                   0.10 s                                       |
|                                                                             |
============================[ Search Statistics ]==============================
| Conflicts |          ORIGINAL         |          LEARNT          | Progress |
|           |    Vars  Clauses Literals |    Limit  Clauses Lit/Cl |          |
===============================================================================
|       100 |   14471    66124   163983 |    24245      100     16 |  3.172 % |
|       250 |   14471    66124   163983 |    26670      250     19 |  3.172 % |
|       475 |   14471    66124   163983 |    29337      475     20 |  3.172 % |
|       812 |   14471    66124   163983 |    32270      812     21 |  3.172 % |
|      1318 |   14471    66124   163983 |    35497     1318     22 |  3.172 % |
|      2077 |   14471    66124   163983 |    39047     2077     23 |  3.172 % |
|      3216 |   14471    66124   163983 |    42952     3216     24 |  3.172 % |
|      4924 |   14471    66124   163983 |    47247     4924     25 |  3.172 % |
|      7486 |   14471    66124   163983 |    51972     7486     26 |  3.172 % |
|     11330 |   14471    66124   163983 |    57169    11330     27 |  3.172 % |
|     17096 |   14471    66124   163983 |    62886    17096     27 |  3.172 % |
|     25745 |   14471    66124   163983 |    69175    25745     26 |  3.172 % |
|     38719 |   14471    66124   163983 |    76092    38719     26 |  3.172 % |
|     58180 |   14471    66124   163983 |    83701    58180     25 |  3.172 % |
ERROR: MiniSat process not found for FULL_RUN_MINISAT\bfadd34e71516e95d0ba2a3a8fb2ba03-pcmax-scheduling-m19-10199-62102-UNSAT.sanitized.cnf 
Finished MiniSat on FULL_RUN_MINISAT\bfadd34e71516e95d0ba2a3a8fb2ba03-pcmax-scheduling-m19-10199-62102-UNSAT.sanitized.cnf